\ Model fpmm
\ LP format - for model browsing. Use MPS format to capture full model detail.
Maximize
  10 s_1_0 + 10 s_1_1 + 10 s_1_2 + 10 s_1_3 + 10 s_1_4 + 10 s_1_5 + 6 s_2_0
   + 6 s_2_1 + 6 s_2_2 + 6 s_2_3 + 6 s_2_4 + 6 s_2_5 + 8 s_3_0 + 8 s_3_1
   + 8 s_3_2 + 8 s_3_3 + 8 s_3_4 + 8 s_3_5 + 4 s_4_0 + 4 s_4_1 + 4 s_4_2
   + 4 s_4_3 + 4 s_4_4 + 4 s_4_5 + 11 s_5_0 + 11 s_5_1 + 11 s_5_2
   + 11 s_5_3 + 11 s_5_4 + 11 s_5_5 + 9 s_6_0 + 9 s_6_1 + 9 s_6_2 + 9 s_6_3
   + 9 s_6_4 + 9 s_6_5 + 3 s_7_0 + 3 s_7_1 + 3 s_7_2 + 3 s_7_3 + 3 s_7_4
   + 3 s_7_5 - 0.5 h_1_0 - 0.5 h_1_1 - 0.5 h_1_2 - 0.5 h_1_3 - 0.5 h_1_4
   - 0.5 h_1_5 - 0.5 h_2_0 - 0.5 h_2_1 - 0.5 h_2_2 - 0.5 h_2_3 - 0.5 h_2_4
   - 0.5 h_2_5 - 0.5 h_3_0 - 0.5 h_3_1 - 0.5 h_3_2 - 0.5 h_3_3 - 0.5 h_3_4
   - 0.5 h_3_5 - 0.5 h_4_0 - 0.5 h_4_1 - 0.5 h_4_2 - 0.5 h_4_3 - 0.5 h_4_4
   - 0.5 h_4_5 - 0.5 h_5_0 - 0.5 h_5_1 - 0.5 h_5_2 - 0.5 h_5_3 - 0.5 h_5_4
   - 0.5 h_5_5 - 0.5 h_6_0 - 0.5 h_6_1 - 0.5 h_6_2 - 0.5 h_6_3 - 0.5 h_6_4
   - 0.5 h_6_5 - 0.5 h_7_0 - 0.5 h_7_1 - 0.5 h_7_2 - 0.5 h_7_3 - 0.5 h_7_4
   - 0.5 h_7_5
Subject To
 cap_grinder: 0.5 x_1_0 + 0.7 x_2_0 + 0.3 x_5_0 + 0.2 x_6_0 + 0.5 x_7_0
   <= 1152
 cap_grinder: 0.5 x_1_1 + 0.7 x_2_1 + 0.3 x_5_1 + 0.2 x_6_1 + 0.5 x_7_1
   <= 1536
 cap_grinder: 0.5 x_1_2 + 0.7 x_2_2 + 0.3 x_5_2 + 0.2 x_6_2 + 0.5 x_7_2
   <= 1536
 cap_grinder: 0.5 x_1_3 + 0.7 x_2_3 + 0.3 x_5_3 + 0.2 x_6_3 + 0.5 x_7_3
   <= 1536
 cap_grinder: 0.5 x_1_4 + 0.7 x_2_4 + 0.3 x_5_4 + 0.2 x_6_4 + 0.5 x_7_4
   <= 1152
 cap_grinder: 0.5 x_1_5 + 0.7 x_2_5 + 0.3 x_5_5 + 0.2 x_6_5 + 0.5 x_7_5
   <= 1536
 cap_vdrill: 0.1 x_1_0 + 0.2 x_2_0 + 0.3 x_4_0 + 0.6 x_6_0 <= 768
 cap_vdrill: 0.1 x_1_1 + 0.2 x_2_1 + 0.3 x_4_1 + 0.6 x_6_1 <= 768
 cap_vdrill: 0.1 x_1_2 + 0.2 x_2_2 + 0.3 x_4_2 + 0.6 x_6_2 <= 768
 cap_vdrill: 0.1 x_1_3 + 0.2 x_2_3 + 0.3 x_4_3 + 0.6 x_6_3 <= 384
 cap_vdrill: 0.1 x_1_4 + 0.2 x_2_4 + 0.3 x_4_4 + 0.6 x_6_4 <= 384
 cap_vdrill: 0.1 x_1_5 + 0.2 x_2_5 + 0.3 x_4_5 + 0.6 x_6_5 <= 768
 cap_hdrill: 0.2 x_1_0 + 0.8 x_3_0 + 0.6 x_7_0 <= 1152
 cap_hdrill: 0.2 x_1_1 + 0.8 x_3_1 + 0.6 x_7_1 <= 384
 cap_hdrill: 0.2 x_1_2 + 0.8 x_3_2 + 0.6 x_7_2 <= 1152
 cap_hdrill: 0.2 x_1_3 + 0.8 x_3_3 + 0.6 x_7_3 <= 1152
 cap_hdrill: 0.2 x_1_4 + 0.8 x_3_4 + 0.6 x_7_4 <= 1152
 cap_hdrill: 0.2 x_1_5 + 0.8 x_3_5 + 0.6 x_7_5 <= 768
 cap_borer: 0.05 x_1_0 + 0.03 x_2_0 + 0.07 x_4_0 + 0.1 x_5_0 + 0.08 x_7_0
   <= 384
 cap_borer: 0.05 x_1_1 + 0.03 x_2_1 + 0.07 x_4_1 + 0.1 x_5_1 + 0.08 x_7_1
   <= 384
 cap_borer: 0.05 x_1_2 + 0.03 x_2_2 + 0.07 x_4_2 + 0.1 x_5_2 + 0.08 x_7_2
   <= 0
 cap_borer: 0.05 x_1_3 + 0.03 x_2_3 + 0.07 x_4_3 + 0.1 x_5_3 + 0.08 x_7_3
   <= 384
 cap_borer: 0.05 x_1_4 + 0.03 x_2_4 + 0.07 x_4_4 + 0.1 x_5_4 + 0.08 x_7_4
   <= 384
 cap_borer: 0.05 x_1_5 + 0.03 x_2_5 + 0.07 x_4_5 + 0.1 x_5_5 + 0.08 x_7_5
   <= 384
 cap_planer: 0.01 x_3_0 + 0.05 x_5_0 + 0.05 x_7_0 <= 384
 cap_planer: 0.01 x_3_1 + 0.05 x_5_1 + 0.05 x_7_1 <= 384
 cap_planer: 0.01 x_3_2 + 0.05 x_5_2 + 0.05 x_7_2 <= 384
 cap_planer: 0.01 x_3_3 + 0.05 x_5_3 + 0.05 x_7_3 <= 384
 cap_planer: 0.01 x_3_4 + 0.05 x_5_4 + 0.05 x_7_4 <= 384
 cap_planer: 0.01 x_3_5 + 0.05 x_5_5 + 0.05 x_7_5 <= 0
 bal0_1_0: x_1_0 - s_1_0 - h_1_0 = 0
 bal_1_1: x_1_1 - s_1_1 + h_1_0 - h_1_1 = 0
 bal_1_2: x_1_2 - s_1_2 + h_1_1 - h_1_2 = 0
 bal_1_3: x_1_3 - s_1_3 + h_1_2 - h_1_3 = 0
 bal_1_4: x_1_4 - s_1_4 + h_1_3 - h_1_4 = 0
 bal_1_5: x_1_5 - s_1_5 + h_1_4 - h_1_5 = 0
 bal0_2_0: x_2_0 - s_2_0 - h_2_0 = 0
 bal_2_1: x_2_1 - s_2_1 + h_2_0 - h_2_1 = 0
 bal_2_2: x_2_2 - s_2_2 + h_2_1 - h_2_2 = 0
 bal_2_3: x_2_3 - s_2_3 + h_2_2 - h_2_3 = 0
 bal_2_4: x_2_4 - s_2_4 + h_2_3 - h_2_4 = 0
 bal_2_5: x_2_5 - s_2_5 + h_2_4 - h_2_5 = 0
 bal0_3_0: x_3_0 - s_3_0 - h_3_0 = 0
 bal_3_1: x_3_1 - s_3_1 + h_3_0 - h_3_1 = 0
 bal_3_2: x_3_2 - s_3_2 + h_3_1 - h_3_2 = 0
 bal_3_3: x_3_3 - s_3_3 + h_3_2 - h_3_3 = 0
 bal_3_4: x_3_4 - s_3_4 + h_3_3 - h_3_4 = 0
 bal_3_5: x_3_5 - s_3_5 + h_3_4 - h_3_5 = 0
 bal0_4_0: x_4_0 - s_4_0 - h_4_0 = 0
 bal_4_1: x_4_1 - s_4_1 + h_4_0 - h_4_1 = 0
 bal_4_2: x_4_2 - s_4_2 + h_4_1 - h_4_2 = 0
 bal_4_3: x_4_3 - s_4_3 + h_4_2 - h_4_3 = 0
 bal_4_4: x_4_4 - s_4_4 + h_4_3 - h_4_4 = 0
 bal_4_5: x_4_5 - s_4_5 + h_4_4 - h_4_5 = 0
 bal0_5_0: x_5_0 - s_5_0 - h_5_0 = 0
 bal_5_1: x_5_1 - s_5_1 + h_5_0 - h_5_1 = 0
 bal_5_2: x_5_2 - s_5_2 + h_5_1 - h_5_2 = 0
 bal_5_3: x_5_3 - s_5_3 + h_5_2 - h_5_3 = 0
 bal_5_4: x_5_4 - s_5_4 + h_5_3 - h_5_4 = 0
 bal_5_5: x_5_5 - s_5_5 + h_5_4 - h_5_5 = 0
 bal0_6_0: x_6_0 - s_6_0 - h_6_0 = 0
 bal_6_1: x_6_1 - s_6_1 + h_6_0 - h_6_1 = 0
 bal_6_2: x_6_2 - s_6_2 + h_6_1 - h_6_2 = 0
 bal_6_3: x_6_3 - s_6_3 + h_6_2 - h_6_3 = 0
 bal_6_4: x_6_4 - s_6_4 + h_6_3 - h_6_4 = 0
 bal_6_5: x_6_5 - s_6_5 + h_6_4 - h_6_5 = 0
 bal0_7_0: x_7_0 - s_7_0 - h_7_0 = 0
 bal_7_1: x_7_1 - s_7_1 + h_7_0 - h_7_1 = 0
 bal_7_2: x_7_2 - s_7_2 + h_7_1 - h_7_2 = 0
 bal_7_3: x_7_3 - s_7_3 + h_7_2 - h_7_3 = 0
 bal_7_4: x_7_4 - s_7_4 + h_7_3 - h_7_4 = 0
 bal_7_5: x_7_5 - s_7_5 + h_7_4 - h_7_5 = 0
 market_limits_1_0: s_1_0 <= 500
 market_limits_1_1: s_1_1 <= 600
 market_limits_1_2: s_1_2 <= 300
 market_limits_1_3: s_1_3 <= 200
 market_limits_1_4: s_1_4 <= 0
 market_limits_1_5: s_1_5 <= 500
 market_limits_2_0: s_2_0 <= 1000
 market_limits_2_1: s_2_1 <= 500
 market_limits_2_2: s_2_2 <= 600
 market_limits_2_3: s_2_3 <= 300
 market_limits_2_4: s_2_4 <= 100
 market_limits_2_5: s_2_5 <= 500
 market_limits_3_0: s_3_0 <= 300
 market_limits_3_1: s_3_1 <= 200
 market_limits_3_2: s_3_2 <= 0
 market_limits_3_3: s_3_3 <= 400
 market_limits_3_4: s_3_4 <= 500
 market_limits_3_5: s_3_5 <= 100
 market_limits_4_0: s_4_0 <= 300
 market_limits_4_1: s_4_1 <= 0
 market_limits_4_2: s_4_2 <= 0
 market_limits_4_3: s_4_3 <= 500
 market_limits_4_4: s_4_4 <= 100
 market_limits_4_5: s_4_5 <= 300
 market_limits_5_0: s_5_0 <= 800
 market_limits_5_1: s_5_1 <= 400
 market_limits_5_2: s_5_2 <= 500
 market_limits_5_3: s_5_3 <= 200
 market_limits_5_4: s_5_4 <= 1000
 market_limits_5_5: s_5_5 <= 1100
 market_limits_6_0: s_6_0 <= 200
 market_limits_6_1: s_6_1 <= 300
 market_limits_6_2: s_6_2 <= 400
 market_limits_6_3: s_6_3 <= 0
 market_limits_6_4: s_6_4 <= 300
 market_limits_6_5: s_6_5 <= 500
 market_limits_7_0: s_7_0 <= 100
 market_limits_7_1: s_7_1 <= 150
 market_limits_7_2: s_7_2 <= 100
 market_limits_7_3: s_7_3 <= 100
 market_limits_7_4: s_7_4 <= 0
 market_limits_7_5: s_7_5 <= 60
 R114: h_1_5 >= 50
 R115: h_2_5 >= 50
 R116: h_3_5 >= 50
 R117: h_4_5 >= 50
 R118: h_5_5 >= 50
 R119: h_6_5 >= 50
 R120: h_7_5 >= 50
Bounds
 h_1_0 <= 100
 h_1_1 <= 100
 h_1_2 <= 100
 h_1_3 <= 100
 h_1_4 <= 100
 h_1_5 <= 100
 h_2_0 <= 100
 h_2_1 <= 100
 h_2_2 <= 100
 h_2_3 <= 100
 h_2_4 <= 100
 h_2_5 <= 100
 h_3_0 <= 100
 h_3_1 <= 100
 h_3_2 <= 100
 h_3_3 <= 100
 h_3_4 <= 100
 h_3_5 <= 100
 h_4_0 <= 100
 h_4_1 <= 100
 h_4_2 <= 100
 h_4_3 <= 100
 h_4_4 <= 100
 h_4_5 <= 100
 h_5_0 <= 100
 h_5_1 <= 100
 h_5_2 <= 100
 h_5_3 <= 100
 h_5_4 <= 100
 h_5_5 <= 100
 h_6_0 <= 100
 h_6_1 <= 100
 h_6_2 <= 100
 h_6_3 <= 100
 h_6_4 <= 100
 h_6_5 <= 100
 h_7_0 <= 100
 h_7_1 <= 100
 h_7_2 <= 100
 h_7_3 <= 100
 h_7_4 <= 100
 h_7_5 <= 100
End
